(set-info :smt-lib-version 2.6)
(set-logic UFNIRA)
(set-info :source |
Generated by: Mirek Olšák, Mikoláš Janota, Chad E. Brown
Generated on: 2024-04-14
Application: Mathematics challenges involving function synthesis
Publications: https://arxiv.org/abs/2404.12048
From a collection by: Vít Musil
Source url: https://prase.cz/library/FunkcionalniRovniceVM/FunkcionalniRovniceVM.pdf
Problem number: Úloha 37
Original source: IMO-1994-5
|)
(set-info :license "https://creativecommons.org/licenses/by-nc/4.0/")
(set-info :category "crafted")
(set-info :status sat)

; Header
(declare-fun f (Real) Real)
(assert (forall ((x Real)) (=> (> x (- 1.0)) (> (f x) (- 1.0)))))

; Equations
(assert (forall ((x Real) (y Real)) (=> (and (> x (- 1.0)) (> y (- 1.0))) (= (f (+ (+ x (f y)) (* x (f y)))) (+ (+ y (f x)) (* y (f x)))))))
(assert (forall ((x Real) (y Real)) (=> (and (> x (- 1.0)) (> y (- 1.0))) (=> (and (< x y) (< y 0.0)) (< (/ (f x) x) (/ (f y) y))))))
(assert (forall ((x Real) (y Real)) (=> (and (> x (- 1.0)) (> y (- 1.0))) (=> (and (< 0.0 x) (< x y)) (< (/ (f x) x) (/ (f y) y))))))

; Find all possible f

(check-sat)
(exit)
